
Welcome to IBM(R) ILOG(R) CPLEX(R) Interactive Optimizer 22.1.1.0
  with Simplex, Mixed Integer & Barrier Optimizers
5725-A06 5725-A29 5724-Y48 5724-Y49 5724-Y54 5724-Y55 5655-Y21
Copyright IBM Corp. 1988, 2022.  All Rights Reserved.

Type 'help' for a list of available commands.
Type 'help' followed by a command name for more
information on commands.

CPLEX> Selected objective sense:  MINIMIZE
Selected objective  name:  00000000
Selected RHS        name:  RHS1
Selected bound      name:  BOUND
Problem 'ee.mps' read.
Read time = 0.03 sec. (3.17 ticks)
CPLEX> New value for time limit in seconds: 7200
CPLEX> New value for parallel optimization mode: -1
CPLEX> New value for default parallel thread count: 40
CPLEX> New value for mixed integer optimality gap tolerance: 1e-13
CPLEX> Version identifier: 22.1.1.0 | 2022-11-28 | 9160aff4d
CPXPARAM_Threads                                 40
CPXPARAM_Parallel                                -1
CPXPARAM_TimeLimit                               7200
CPXPARAM_MIP_Tolerances_MIPGap                   1e-13
Found incumbent of value 0.000000 after 0.00 sec. (0.31 ticks)
Tried aggregator 2 times.
MIP Presolve eliminated 183 rows and 2745 columns.
MIP Presolve modified 6090 coefficients.
Aggregator did 713 substitutions.
Reduced MIP has 3636 rows, 7840 columns, and 28953 nonzeros.
Reduced MIP has 7840 binaries, 0 generals, 0 SOSs, and 0 indicators.
Presolve time = 0.07 sec. (69.13 ticks)
Probing time = 0.03 sec. (5.35 ticks)
Tried aggregator 1 time.
Detecting symmetries...
Reduced MIP has 3636 rows, 7840 columns, and 28953 nonzeros.
Reduced MIP has 7840 binaries, 0 generals, 0 SOSs, and 0 indicators.
Presolve time = 0.03 sec. (22.10 ticks)
Probing time = 0.02 sec. (5.13 ticks)
Clique table members: 18788.
MIP emphasis: balance optimality and feasibility.
MIP search method: dynamic search.
Parallel mode: opportunistic, using up to 40 threads.
Root relaxation solution time = 0.15 sec. (131.94 ticks)

        Nodes                                         Cuts/
   Node  Left     Objective  IInf  Best Integer    Best Bound    ItCnt     Gap

*     0+    0                            0.0000  -1.54000e+13              --- 
*     0+    0                      -5.79000e+12  -1.54000e+13           165.98%
*     0+    0                      -7.20000e+12  -1.54000e+13           113.89%
      0     0  -1.53900e+13   119  -7.20000e+12  -1.53900e+13     2802  113.75%
*     0+    0                      -8.19000e+12  -1.53900e+13            87.91%
*     0+    0                      -1.41900e+13  -1.53900e+13             8.46%
      0     0  -1.53900e+13   177  -1.41900e+13     Cuts: 112     3115    8.46%
      0     0  -1.53900e+13   220  -1.41900e+13     Cuts: 103     3402    8.46%
*     0+    0                      -1.53900e+13  -1.53900e+13             0.00%
*     0+    0                      -1.53900e+13  -1.53900e+13             0.00%
*     0+    0                      -1.53900e+13  -1.53900e+13             0.00%
*     0+    0                      -1.53900e+13  -1.53900e+13             0.00%
*     0+    0                      -1.53900e+13  -1.53900e+13             0.00%
      0    33    infeasible        -1.53900e+13  -1.53900e+13    21551    0.00%
Elapsed time = 2.65 sec. (1302.47 ticks, tree = 0.02 MB, solutions = 20)
    160    76        cutoff        -1.53900e+13  -1.53900e+13    41343    0.00%
    700    66    infeasible        -1.53900e+13  -1.53900e+13    35037    0.00%
   1440    78  -1.53900e+13   168  -1.53900e+13  -1.53900e+13    36246    0.00%
   2122   237  -1.53900e+13    83  -1.53900e+13  -1.53900e+13    99611    0.00%
*  2647   583      integral     0  -1.53900e+13  -1.53900e+13   214669    0.00%
   2668   249  -1.53900e+13    44  -1.53900e+13  -1.53900e+13    96018    0.00%
   3113   152  -1.53900e+13   107  -1.53900e+13  -1.53900e+13    79208    0.00%
   3467   267  -1.53900e+13    79  -1.53900e+13  -1.53900e+13   105405    0.00%
   3744   875  -1.53900e+13   142  -1.53900e+13  -1.53900e+13   375938    0.00%
   4041   515  -1.53900e+13   214  -1.53900e+13  -1.53900e+13   191640    0.00%
   5432   959  -1.53900e+13    65  -1.53900e+13  -1.53900e+13   753479    0.00%
Elapsed time = 8.86 sec. (4408.23 ticks, tree = 5.61 MB, solutions = 35)
   7431  1008  -1.53900e+13    72  -1.53900e+13  -1.53900e+13   682107    0.00%
  10747   993  -1.53900e+13    85  -1.53900e+13  -1.53900e+13   723047    0.00%
  14324  1104  -1.53900e+13    49  -1.53900e+13  -1.53900e+13   832729    0.00%
  16594  1460        cutoff        -1.53900e+13  -1.53900e+13  1070105    0.00%

Performing restart 1

Repeating presolve.
Tried aggregator 3 times.
MIP Presolve eliminated 158 rows and 607 columns.
MIP Presolve modified 1824 coefficients.
Aggregator did 67 substitutions.
Reduced MIP has 3335 rows, 7160 columns, and 25853 nonzeros.
Reduced MIP has 7160 binaries, 0 generals, 0 SOSs, and 0 indicators.
Presolve time = 0.06 sec. (57.02 ticks)
Tried aggregator 2 times.
MIP Presolve eliminated 23 rows and 72 columns.
MIP Presolve modified 16 coefficients.
Aggregator did 19 substitutions.
Reduced MIP has 3293 rows, 7062 columns, and 25513 nonzeros.
Reduced MIP has 7062 binaries, 0 generals, 0 SOSs, and 0 indicators.
Presolve time = 0.05 sec. (44.25 ticks)
Tried aggregator 2 times.
MIP Presolve eliminated 5 rows and 19 columns.
Aggregator did 5 substitutions.
Reduced MIP has 3283 rows, 7036 columns, and 25423 nonzeros.
Reduced MIP has 7036 binaries, 0 generals, 0 SOSs, and 0 indicators.
Presolve time = 0.05 sec. (38.80 ticks)
Represolve time = 0.36 sec. (248.25 ticks)
  16896     0  -1.53900e+13   280  -1.53900e+13      Cuts: 22  1446017    0.00%
  16896     0  -1.53900e+13   272  -1.53900e+13      Cuts: 18  1446136    0.00%
  16896     0  -1.53900e+13   249  -1.53900e+13      Cuts: 16  1446172    0.00%
  16896     0  -1.53900e+13   234  -1.53900e+13      Cuts: 16  1446374    0.00%
  16896     0  -1.53900e+13   319  -1.53900e+13      Cuts: 38  1446532    0.00%
  16896     0  -1.53900e+13   266  -1.53900e+13  ZeroHalf: 23  1446678    0.00%
  16896     0  -1.53900e+13   334  -1.53900e+13  ZeroHalf: 24  1446850    0.00%
  16896     0  -1.53900e+13   340  -1.53900e+13      Cuts: 18  1446954    0.00%
  16896    18        cutoff        -1.53900e+13  -1.53900e+13  1455120    0.00%
  18021    21        cutoff        -1.53900e+13  -1.53900e+13  1472016    0.00%
  18140     8  -1.53900e+13   195  -1.53900e+13  -1.53900e+13  1452865    0.00%

GUB cover cuts applied:  2
Clique cuts applied:  16
Cover cuts applied:  260
Mixed integer rounding cuts applied:  3
Zero-half cuts applied:  46
Lift and project cuts applied:  4
Gomory fractional cuts applied:  15

Root node processing (before b&c):
  Real time             =    1.44 sec. (1292.75 ticks)
Parallel b&c, 40 threads:
  Real time             =   19.52 sec. (12915.45 ticks)
  Sync time (average)   =    4.17 sec.
  Wait time (average)   =    0.12 sec.
                          ------------
Total (root+branch&cut) =   20.96 sec. (14208.19 ticks)

Solution pool: 35 solutions saved.

MIP - Integer optimal solution:  Objective = -1.5389998588e+13
Solution time =   21.07 sec.  Iterations = 1476792  Nodes = 18153
Deterministic time = 14208.23 ticks  (674.37 ticks/sec)

CPLEX> Solution 'p36' written to file 'ee.sol'.
CPLEX> 